;; Preprocessed for Astral solver
(set-info :status sat)
;; variables
(declare-const x0 Loc)
(declare-const x1 Loc)
(declare-const x2 Loc)
(declare-const x3 Loc)
(declare-const x4 Loc)
(declare-const x5 Loc)
(declare-const x6 Loc)
(declare-const x7 Loc)
(declare-const x8 Loc)
(declare-const x9 Loc)
(declare-const x10 Loc)
(declare-const x11 Loc)
(declare-const x12 Loc)
(declare-const x13 Loc)
(declare-const x14 Loc)
(declare-const x15 Loc)
(declare-const x16 Loc)
(declare-const x17 Loc)
(declare-const x18 Loc)
(declare-const x19 Loc)

(assert 
		(sep 
			(= nil nil)
		(sep 
			(pto x2 x3)
			(pto x11 x3)
			(ls x15 x12 )
			(pto x3 x11)
			(ls x10 x12 )
			(ls x13 x5 )
			(pto x7 x10)
			(pto x9 x5)
			(ls x8 x13 )
			(pto x4 x5)
			(ls x1 x4 )
			(pto x12 x5)
			(pto x6 x3)
			(ls x5 x12 )
			(pto x14 x11)
		)

		)

)

(assert (not 
		(sep 
			(ls x6 x3 )
			(ls x15 x12 )
			(ls x2 x3 )
			(ls x9 x5 )
			(ls x1 x4 )
			(ls x8 x13 )
			(ls x14 x11 )
			(ls x3 x11 )
			(ls x11 x3 )
			(ls x7 x10 )
			(ls x10 x5 )
			(ls x4 x5 )
			(ls x13 x5 )
			(ls x5 x12 )
		)

))

(check-sat)
